(set-info :smt-lib-version 2.6)
(set-logic QF_NRA)
(set-info :source |
Generated by a component of the Ultimate program analysis framework [1] 
that implements a constraint-based synthesis of invariants [2].

This SMT script belongs to a set of SMT scripts that was generated by 
applying Ultimate to benchmarks [3] from the SV-COMP 2017 [4,5].

This script might _not_ contain all SMT commands that are used by 
Ultimate . In order to satisfy the restrictions of
the SMT-COMP we have to drop e.g., the commands for getting
values (resp. models), unsatisfiable cores and interpolants.

2017-05-01, Matthias Heizmann (heizmann@informatik.uni-freiburg.de)


[1] https://ultimate.informatik.uni-freiburg.de/
[2] Michael Colon, Sriram Sankaranarayanan, Henny Sipma: Linear Invariant 
Generation Using Non-linear Constraint Solving. CAV 2003: 420-432
[3] https://github.com/sosy-lab/sv-benchmarks
[4] Dirk Beyer: Software Verification with Validation of Results - 
(Report on SV-COMP 2017). TACAS (2) 2017: 331-349
[5] https://sv-comp.sosy-lab.org/2017/
|)
(set-info :license "https://creativecommons.org/licenses/by/4.0/")
(set-info :category "industrial")
(set-info :status unknown)
(declare-fun lp_0_0c () Real)
(declare-fun lp_0_0_ULTIMATE.start_main_~n~5 () Real)
(declare-fun lp_0_0_ULTIMATE.start_main_~x~5 () Real)
(declare-fun lp_0_0_ULTIMATE.start_main_~y~5 () Real)
(declare-fun lp_0_1c () Real)
(declare-fun lp_0_1_ULTIMATE.start_main_~n~5 () Real)
(declare-fun lp_0_1_ULTIMATE.start_main_~x~5 () Real)
(declare-fun lp_0_1_ULTIMATE.start_main_~y~5 () Real)
(declare-fun lp_0_2c () Real)
(declare-fun lp_0_2_ULTIMATE.start_main_~n~5 () Real)
(declare-fun lp_0_2_ULTIMATE.start_main_~x~5 () Real)
(declare-fun lp_0_2_ULTIMATE.start_main_~y~5 () Real)
(declare-fun lp_0_3c () Real)
(declare-fun lp_0_3_ULTIMATE.start_main_~n~5 () Real)
(declare-fun lp_0_3_ULTIMATE.start_main_~x~5 () Real)
(declare-fun lp_0_3_ULTIMATE.start_main_~y~5 () Real)
(declare-fun motzkin_443_0 () Real)
(declare-fun motzkin_443_1 () Real)
(declare-fun motzkin_443_2 () Real)
(declare-fun motzkin_443_3 () Real)
(declare-fun motzkin_443_4 () Real)
(declare-fun motzkin_443_5 () Real)
(declare-fun motzkin_444_0 () Real)
(declare-fun motzkin_444_1 () Real)
(declare-fun motzkin_444_2 () Real)
(declare-fun motzkin_444_3 () Real)
(declare-fun motzkin_444_4 () Real)
(declare-fun motzkin_444_5 () Real)
(declare-fun motzkin_445_0 () Real)
(declare-fun motzkin_445_1 () Real)
(declare-fun motzkin_445_2 () Real)
(declare-fun motzkin_445_3 () Real)
(declare-fun motzkin_445_4 () Real)
(declare-fun motzkin_445_5 () Real)
(declare-fun motzkin_446_0 () Real)
(declare-fun motzkin_446_1 () Real)
(declare-fun motzkin_446_2 () Real)
(declare-fun motzkin_446_3 () Real)
(declare-fun motzkin_446_4 () Real)
(declare-fun motzkin_446_5 () Real)
(assert (and (>= motzkin_443_0 0.0) (>= motzkin_443_1 0.0) (>= motzkin_443_2 0.0) (>= motzkin_443_3 0.0) (>= motzkin_443_4 0.0) (>= motzkin_443_5 0.0) (= (+ (* motzkin_443_0 (- 1.0)) motzkin_443_1 (* motzkin_443_4 (+ (* (- 1.0) lp_0_0_ULTIMATE.start_main_~x~5) 0.0)) (* motzkin_443_5 (+ (* (- 1.0) lp_0_2_ULTIMATE.start_main_~x~5) 0.0))) 0.0) (= (+ motzkin_443_0 (* motzkin_443_1 (- 1.0)) (* motzkin_443_4 (+ (* (- 1.0) lp_0_0_ULTIMATE.start_main_~n~5) 0.0)) (* motzkin_443_5 (+ (* (- 1.0) lp_0_2_ULTIMATE.start_main_~n~5) 0.0))) 0.0) (= (+ (* motzkin_443_2 (- 1.0)) motzkin_443_3 (* motzkin_443_4 (+ (* (- 1.0) lp_0_0_ULTIMATE.start_main_~y~5) 0.0)) (* motzkin_443_5 (+ (* (- 1.0) lp_0_2_ULTIMATE.start_main_~y~5) 0.0))) 0.0) (<= (+ (* motzkin_443_4 (+ (* (- 1.0) lp_0_0c) 0.0)) (* motzkin_443_5 (+ (* (- 1.0) lp_0_2c) 0.0))) 0.0) (or (< 0.0 0.0) (> (+ motzkin_443_4 motzkin_443_5) 0.0)) (>= motzkin_444_0 0.0) (>= motzkin_444_1 0.0) (>= motzkin_444_2 0.0) (>= motzkin_444_3 0.0) (>= motzkin_444_4 0.0) (>= motzkin_444_5 0.0) (= (+ (* motzkin_444_0 (- 1.0)) motzkin_444_1 (* motzkin_444_4 (+ (* (- 1.0) lp_0_0_ULTIMATE.start_main_~x~5) 0.0)) (* motzkin_444_5 (+ (* (- 1.0) lp_0_3_ULTIMATE.start_main_~x~5) 0.0))) 0.0) (= (+ motzkin_444_0 (* motzkin_444_1 (- 1.0)) (* motzkin_444_4 (+ (* (- 1.0) lp_0_0_ULTIMATE.start_main_~n~5) 0.0)) (* motzkin_444_5 (+ (* (- 1.0) lp_0_3_ULTIMATE.start_main_~n~5) 0.0))) 0.0) (= (+ (* motzkin_444_2 (- 1.0)) motzkin_444_3 (* motzkin_444_4 (+ (* (- 1.0) lp_0_0_ULTIMATE.start_main_~y~5) 0.0)) (* motzkin_444_5 (+ (* (- 1.0) lp_0_3_ULTIMATE.start_main_~y~5) 0.0))) 0.0) (<= (+ (* motzkin_444_4 (+ (* (- 1.0) lp_0_0c) 0.0)) (* motzkin_444_5 (+ (* (- 1.0) lp_0_3c) 0.0))) 0.0) (or (< 0.0 0.0) (> (+ motzkin_444_4 motzkin_444_5) 0.0)) (>= motzkin_445_0 0.0) (>= motzkin_445_1 0.0) (>= motzkin_445_2 0.0) (>= motzkin_445_3 0.0) (>= motzkin_445_4 0.0) (>= motzkin_445_5 0.0) (= (+ (* motzkin_445_0 (- 1.0)) motzkin_445_1 (* motzkin_445_4 (+ (* (- 1.0) lp_0_1_ULTIMATE.start_main_~x~5) 0.0)) (* motzkin_445_5 (+ (* (- 1.0) lp_0_2_ULTIMATE.start_main_~x~5) 0.0))) 0.0) (= (+ motzkin_445_0 (* motzkin_445_1 (- 1.0)) (* motzkin_445_4 (+ (* (- 1.0) lp_0_1_ULTIMATE.start_main_~n~5) 0.0)) (* motzkin_445_5 (+ (* (- 1.0) lp_0_2_ULTIMATE.start_main_~n~5) 0.0))) 0.0) (= (+ (* motzkin_445_2 (- 1.0)) motzkin_445_3 (* motzkin_445_4 (+ (* (- 1.0) lp_0_1_ULTIMATE.start_main_~y~5) 0.0)) (* motzkin_445_5 (+ (* (- 1.0) lp_0_2_ULTIMATE.start_main_~y~5) 0.0))) 0.0) (<= (+ (* motzkin_445_4 (+ (* (- 1.0) lp_0_1c) 0.0)) (* motzkin_445_5 (+ (* (- 1.0) lp_0_2c) 0.0))) 0.0) (or (< 0.0 0.0) (> (+ motzkin_445_4 motzkin_445_5) 0.0)) (>= motzkin_446_0 0.0) (>= motzkin_446_1 0.0) (>= motzkin_446_2 0.0) (>= motzkin_446_3 0.0) (>= motzkin_446_4 0.0) (>= motzkin_446_5 0.0) (= (+ (* motzkin_446_0 (- 1.0)) motzkin_446_1 (* motzkin_446_4 (+ (* (- 1.0) lp_0_1_ULTIMATE.start_main_~x~5) 0.0)) (* motzkin_446_5 (+ (* (- 1.0) lp_0_3_ULTIMATE.start_main_~x~5) 0.0))) 0.0) (= (+ motzkin_446_0 (* motzkin_446_1 (- 1.0)) (* motzkin_446_4 (+ (* (- 1.0) lp_0_1_ULTIMATE.start_main_~n~5) 0.0)) (* motzkin_446_5 (+ (* (- 1.0) lp_0_3_ULTIMATE.start_main_~n~5) 0.0))) 0.0) (= (+ (* motzkin_446_2 (- 1.0)) motzkin_446_3 (* motzkin_446_4 (+ (* (- 1.0) lp_0_1_ULTIMATE.start_main_~y~5) 0.0)) (* motzkin_446_5 (+ (* (- 1.0) lp_0_3_ULTIMATE.start_main_~y~5) 0.0))) 0.0) (<= (+ (* motzkin_446_4 (+ (* (- 1.0) lp_0_1c) 0.0)) (* motzkin_446_5 (+ (* (- 1.0) lp_0_3c) 0.0))) 0.0) (or (< 0.0 0.0) (> (+ motzkin_446_4 motzkin_446_5) 0.0))))
(declare-fun motzkin_447_0 () Real)
(declare-fun motzkin_447_1 () Real)
(declare-fun motzkin_447_2 () Real)
(declare-fun motzkin_447_3 () Real)
(declare-fun motzkin_447_4 () Real)
(declare-fun motzkin_447_5 () Real)
(declare-fun motzkin_447_6 () Real)
(declare-fun motzkin_447_7 () Real)
(declare-fun motzkin_447_8 () Real)
(declare-fun motzkin_447_9 () Real)
(declare-fun motzkin_447_10 () Real)
(declare-fun motzkin_447_11 () Real)
(declare-fun motzkin_447_12 () Real)
(declare-fun motzkin_448_0 () Real)
(declare-fun motzkin_448_1 () Real)
(declare-fun motzkin_448_2 () Real)
(declare-fun motzkin_448_3 () Real)
(declare-fun motzkin_448_4 () Real)
(declare-fun motzkin_448_5 () Real)
(declare-fun motzkin_448_6 () Real)
(declare-fun motzkin_448_7 () Real)
(declare-fun motzkin_448_8 () Real)
(declare-fun motzkin_448_9 () Real)
(declare-fun motzkin_448_10 () Real)
(declare-fun motzkin_448_11 () Real)
(declare-fun motzkin_448_12 () Real)
(declare-fun motzkin_449_0 () Real)
(declare-fun motzkin_449_1 () Real)
(declare-fun motzkin_449_2 () Real)
(declare-fun motzkin_449_3 () Real)
(declare-fun motzkin_449_4 () Real)
(declare-fun motzkin_449_5 () Real)
(declare-fun motzkin_449_6 () Real)
(declare-fun motzkin_449_7 () Real)
(declare-fun motzkin_449_8 () Real)
(declare-fun motzkin_449_9 () Real)
(declare-fun motzkin_449_10 () Real)
(declare-fun motzkin_449_11 () Real)
(declare-fun motzkin_449_12 () Real)
(declare-fun motzkin_450_0 () Real)
(declare-fun motzkin_450_1 () Real)
(declare-fun motzkin_450_2 () Real)
(declare-fun motzkin_450_3 () Real)
(declare-fun motzkin_450_4 () Real)
(declare-fun motzkin_450_5 () Real)
(declare-fun motzkin_450_6 () Real)
(declare-fun motzkin_450_7 () Real)
(declare-fun motzkin_450_8 () Real)
(declare-fun motzkin_450_9 () Real)
(declare-fun motzkin_450_10 () Real)
(declare-fun motzkin_450_11 () Real)
(declare-fun motzkin_450_12 () Real)
(declare-fun motzkin_451_0 () Real)
(declare-fun motzkin_451_1 () Real)
(declare-fun motzkin_451_2 () Real)
(declare-fun motzkin_451_3 () Real)
(declare-fun motzkin_451_4 () Real)
(declare-fun motzkin_451_5 () Real)
(declare-fun motzkin_451_6 () Real)
(declare-fun motzkin_451_7 () Real)
(declare-fun motzkin_451_8 () Real)
(declare-fun motzkin_451_9 () Real)
(declare-fun motzkin_451_10 () Real)
(declare-fun motzkin_451_11 () Real)
(declare-fun motzkin_451_12 () Real)
(declare-fun motzkin_452_0 () Real)
(declare-fun motzkin_452_1 () Real)
(declare-fun motzkin_452_2 () Real)
(declare-fun motzkin_452_3 () Real)
(declare-fun motzkin_452_4 () Real)
(declare-fun motzkin_452_5 () Real)
(declare-fun motzkin_452_6 () Real)
(declare-fun motzkin_452_7 () Real)
(declare-fun motzkin_452_8 () Real)
(declare-fun motzkin_452_9 () Real)
(declare-fun motzkin_452_10 () Real)
(declare-fun motzkin_452_11 () Real)
(declare-fun motzkin_452_12 () Real)
(declare-fun motzkin_453_0 () Real)
(declare-fun motzkin_453_1 () Real)
(declare-fun motzkin_453_2 () Real)
(declare-fun motzkin_453_3 () Real)
(declare-fun motzkin_453_4 () Real)
(declare-fun motzkin_453_5 () Real)
(declare-fun motzkin_453_6 () Real)
(declare-fun motzkin_453_7 () Real)
(declare-fun motzkin_453_8 () Real)
(declare-fun motzkin_453_9 () Real)
(declare-fun motzkin_453_10 () Real)
(declare-fun motzkin_453_11 () Real)
(declare-fun motzkin_453_12 () Real)
(declare-fun motzkin_454_0 () Real)
(declare-fun motzkin_454_1 () Real)
(declare-fun motzkin_454_2 () Real)
(declare-fun motzkin_454_3 () Real)
(declare-fun motzkin_454_4 () Real)
(declare-fun motzkin_454_5 () Real)
(declare-fun motzkin_454_6 () Real)
(declare-fun motzkin_454_7 () Real)
(declare-fun motzkin_454_8 () Real)
(declare-fun motzkin_454_9 () Real)
(declare-fun motzkin_454_10 () Real)
(declare-fun motzkin_454_11 () Real)
(declare-fun motzkin_454_12 () Real)
(assert (and (>= motzkin_447_0 0.0) (>= motzkin_447_1 0.0) (>= motzkin_447_2 0.0) (>= motzkin_447_3 0.0) (>= motzkin_447_4 0.0) (>= motzkin_447_5 0.0) (>= motzkin_447_6 0.0) (>= motzkin_447_7 0.0) (>= motzkin_447_8 0.0) (>= motzkin_447_9 0.0) (>= motzkin_447_10 0.0) (>= motzkin_447_11 0.0) (>= motzkin_447_12 0.0) (= (+ (* motzkin_447_0 (- 1.0)) motzkin_447_3 (* motzkin_447_9 (+ (* (- 1.0) lp_0_0_ULTIMATE.start_main_~x~5) 0.0)) (* motzkin_447_10 (+ (* (- 1.0) lp_0_2_ULTIMATE.start_main_~x~5) 0.0))) 0.0) (= (+ motzkin_447_0 (* motzkin_447_3 (- 1.0)) motzkin_447_5 (* motzkin_447_6 (- 1.0)) (* motzkin_447_7 (- 1.0)) (* motzkin_447_11 (+ (* 1.0 lp_0_0_ULTIMATE.start_main_~x~5) 0.0)) (* motzkin_447_12 (+ (* 1.0 lp_0_1_ULTIMATE.start_main_~x~5) 0.0))) 0.0) (= (+ motzkin_447_1 (* motzkin_447_8 (- 1.0)) (* motzkin_447_9 (+ (* (- 1.0) lp_0_0_ULTIMATE.start_main_~y~5) 0.0)) (* motzkin_447_10 (+ (* (- 1.0) lp_0_2_ULTIMATE.start_main_~y~5) 0.0))) 0.0) (= (+ (* motzkin_447_1 (- 1.0)) motzkin_447_8 (* motzkin_447_11 (+ (* 1.0 lp_0_0_ULTIMATE.start_main_~y~5) 0.0)) (* motzkin_447_12 (+ (* 1.0 lp_0_1_ULTIMATE.start_main_~y~5) 0.0))) 0.0) (= (+ (* motzkin_447_2 (- 1.0)) motzkin_447_4 (* motzkin_447_5 (- 1.0)) motzkin_447_6) 0.0) (= (+ (* motzkin_447_5 (- 4294967296.0)) (* motzkin_447_6 4294967296.0)) 0.0) (= (+ (* motzkin_447_9 (+ (* (- 1.0) lp_0_0_ULTIMATE.start_main_~n~5) 0.0)) (* motzkin_447_10 (+ (* (- 1.0) lp_0_2_ULTIMATE.start_main_~n~5) 0.0)) (* motzkin_447_11 (+ (* 1.0 lp_0_0_ULTIMATE.start_main_~n~5) 0.0)) (* motzkin_447_12 (+ (* 1.0 lp_0_1_ULTIMATE.start_main_~n~5) 0.0))) 0.0) (<= (+ (* motzkin_447_0 (- 1.0)) (* motzkin_447_1 (- 1.0)) (* motzkin_447_2 4294967295.0) motzkin_447_3 (* motzkin_447_4 (- 1.0)) (* motzkin_447_7 (- 4294967297.0)) motzkin_447_8 (* motzkin_447_9 (+ (* (- 1.0) lp_0_0c) 0.0)) (* motzkin_447_10 (+ (* (- 1.0) lp_0_2c) 0.0)) (* motzkin_447_11 (+ (* 1.0 lp_0_0c) 0.0)) (* motzkin_447_12 (+ (* 1.0 lp_0_1c) 0.0))) 0.0) (or (< (+ (* motzkin_447_0 (- 1.0)) (* motzkin_447_1 (- 1.0)) (* motzkin_447_2 4294967295.0) motzkin_447_3 (* motzkin_447_4 (- 1.0)) (* motzkin_447_7 (- 4294967297.0)) motzkin_447_8 (* motzkin_447_11 (+ (* 1.0 lp_0_0c) 0.0)) (* motzkin_447_12 (+ (* 1.0 lp_0_1c) 0.0))) 0.0) (> (+ motzkin_447_9 motzkin_447_10) 0.0)) (>= motzkin_448_0 0.0) (>= motzkin_448_1 0.0) (>= motzkin_448_2 0.0) (>= motzkin_448_3 0.0) (>= motzkin_448_4 0.0) (>= motzkin_448_5 0.0) (>= motzkin_448_6 0.0) (>= motzkin_448_7 0.0) (>= motzkin_448_8 0.0) (>= motzkin_448_9 0.0) (>= motzkin_448_10 0.0) (>= motzkin_448_11 0.0) (>= motzkin_448_12 0.0) (= (+ (* motzkin_448_0 (- 1.0)) motzkin_448_3 (* motzkin_448_9 (+ (* (- 1.0) lp_0_0_ULTIMATE.start_main_~x~5) 0.0)) (* motzkin_448_10 (+ (* (- 1.0) lp_0_2_ULTIMATE.start_main_~x~5) 0.0))) 0.0) (= (+ motzkin_448_0 (* motzkin_448_3 (- 1.0)) motzkin_448_5 (* motzkin_448_6 (- 1.0)) (* motzkin_448_7 (- 1.0)) (* motzkin_448_11 (+ (* 1.0 lp_0_2_ULTIMATE.start_main_~x~5) 0.0)) (* motzkin_448_12 (+ (* 1.0 lp_0_3_ULTIMATE.start_main_~x~5) 0.0))) 0.0) (= (+ motzkin_448_1 (* motzkin_448_8 (- 1.0)) (* motzkin_448_9 (+ (* (- 1.0) lp_0_0_ULTIMATE.start_main_~y~5) 0.0)) (* motzkin_448_10 (+ (* (- 1.0) lp_0_2_ULTIMATE.start_main_~y~5) 0.0))) 0.0) (= (+ (* motzkin_448_1 (- 1.0)) motzkin_448_8 (* motzkin_448_11 (+ (* 1.0 lp_0_2_ULTIMATE.start_main_~y~5) 0.0)) (* motzkin_448_12 (+ (* 1.0 lp_0_3_ULTIMATE.start_main_~y~5) 0.0))) 0.0) (= (+ (* motzkin_448_2 (- 1.0)) motzkin_448_4 (* motzkin_448_5 (- 1.0)) motzkin_448_6) 0.0) (= (+ (* motzkin_448_5 (- 4294967296.0)) (* motzkin_448_6 4294967296.0)) 0.0) (= (+ (* motzkin_448_9 (+ (* (- 1.0) lp_0_0_ULTIMATE.start_main_~n~5) 0.0)) (* motzkin_448_10 (+ (* (- 1.0) lp_0_2_ULTIMATE.start_main_~n~5) 0.0)) (* motzkin_448_11 (+ (* 1.0 lp_0_2_ULTIMATE.start_main_~n~5) 0.0)) (* motzkin_448_12 (+ (* 1.0 lp_0_3_ULTIMATE.start_main_~n~5) 0.0))) 0.0) (<= (+ (* motzkin_448_0 (- 1.0)) (* motzkin_448_1 (- 1.0)) (* motzkin_448_2 4294967295.0) motzkin_448_3 (* motzkin_448_4 (- 1.0)) (* motzkin_448_7 (- 4294967297.0)) motzkin_448_8 (* motzkin_448_9 (+ (* (- 1.0) lp_0_0c) 0.0)) (* motzkin_448_10 (+ (* (- 1.0) lp_0_2c) 0.0)) (* motzkin_448_11 (+ (* 1.0 lp_0_2c) 0.0)) (* motzkin_448_12 (+ (* 1.0 lp_0_3c) 0.0))) 0.0) (or (< (+ (* motzkin_448_0 (- 1.0)) (* motzkin_448_1 (- 1.0)) (* motzkin_448_2 4294967295.0) motzkin_448_3 (* motzkin_448_4 (- 1.0)) (* motzkin_448_7 (- 4294967297.0)) motzkin_448_8 (* motzkin_448_11 (+ (* 1.0 lp_0_2c) 0.0)) (* motzkin_448_12 (+ (* 1.0 lp_0_3c) 0.0))) 0.0) (> (+ motzkin_448_9 motzkin_448_10) 0.0)) (>= motzkin_449_0 0.0) (>= motzkin_449_1 0.0) (>= motzkin_449_2 0.0) (>= motzkin_449_3 0.0) (>= motzkin_449_4 0.0) (>= motzkin_449_5 0.0) (>= motzkin_449_6 0.0) (>= motzkin_449_7 0.0) (>= motzkin_449_8 0.0) (>= motzkin_449_9 0.0) (>= motzkin_449_10 0.0) (>= motzkin_449_11 0.0) (>= motzkin_449_12 0.0) (= (+ (* motzkin_449_0 (- 1.0)) motzkin_449_3 (* motzkin_449_9 (+ (* (- 1.0) lp_0_0_ULTIMATE.start_main_~x~5) 0.0)) (* motzkin_449_10 (+ (* (- 1.0) lp_0_3_ULTIMATE.start_main_~x~5) 0.0))) 0.0) (= (+ motzkin_449_0 (* motzkin_449_3 (- 1.0)) motzkin_449_5 (* motzkin_449_6 (- 1.0)) (* motzkin_449_7 (- 1.0)) (* motzkin_449_11 (+ (* 1.0 lp_0_0_ULTIMATE.start_main_~x~5) 0.0)) (* motzkin_449_12 (+ (* 1.0 lp_0_1_ULTIMATE.start_main_~x~5) 0.0))) 0.0) (= (+ motzkin_449_1 (* motzkin_449_8 (- 1.0)) (* motzkin_449_9 (+ (* (- 1.0) lp_0_0_ULTIMATE.start_main_~y~5) 0.0)) (* motzkin_449_10 (+ (* (- 1.0) lp_0_3_ULTIMATE.start_main_~y~5) 0.0))) 0.0) (= (+ (* motzkin_449_1 (- 1.0)) motzkin_449_8 (* motzkin_449_11 (+ (* 1.0 lp_0_0_ULTIMATE.start_main_~y~5) 0.0)) (* motzkin_449_12 (+ (* 1.0 lp_0_1_ULTIMATE.start_main_~y~5) 0.0))) 0.0) (= (+ (* motzkin_449_2 (- 1.0)) motzkin_449_4 (* motzkin_449_5 (- 1.0)) motzkin_449_6) 0.0) (= (+ (* motzkin_449_5 (- 4294967296.0)) (* motzkin_449_6 4294967296.0)) 0.0) (= (+ (* motzkin_449_9 (+ (* (- 1.0) lp_0_0_ULTIMATE.start_main_~n~5) 0.0)) (* motzkin_449_10 (+ (* (- 1.0) lp_0_3_ULTIMATE.start_main_~n~5) 0.0)) (* motzkin_449_11 (+ (* 1.0 lp_0_0_ULTIMATE.start_main_~n~5) 0.0)) (* motzkin_449_12 (+ (* 1.0 lp_0_1_ULTIMATE.start_main_~n~5) 0.0))) 0.0) (<= (+ (* motzkin_449_0 (- 1.0)) (* motzkin_449_1 (- 1.0)) (* motzkin_449_2 4294967295.0) motzkin_449_3 (* motzkin_449_4 (- 1.0)) (* motzkin_449_7 (- 4294967297.0)) motzkin_449_8 (* motzkin_449_9 (+ (* (- 1.0) lp_0_0c) 0.0)) (* motzkin_449_10 (+ (* (- 1.0) lp_0_3c) 0.0)) (* motzkin_449_11 (+ (* 1.0 lp_0_0c) 0.0)) (* motzkin_449_12 (+ (* 1.0 lp_0_1c) 0.0))) 0.0) (or (< (+ (* motzkin_449_0 (- 1.0)) (* motzkin_449_1 (- 1.0)) (* motzkin_449_2 4294967295.0) motzkin_449_3 (* motzkin_449_4 (- 1.0)) (* motzkin_449_7 (- 4294967297.0)) motzkin_449_8 (* motzkin_449_11 (+ (* 1.0 lp_0_0c) 0.0)) (* motzkin_449_12 (+ (* 1.0 lp_0_1c) 0.0))) 0.0) (> (+ motzkin_449_9 motzkin_449_10) 0.0)) (>= motzkin_450_0 0.0) (>= motzkin_450_1 0.0) (>= motzkin_450_2 0.0) (>= motzkin_450_3 0.0) (>= motzkin_450_4 0.0) (>= motzkin_450_5 0.0) (>= motzkin_450_6 0.0) (>= motzkin_450_7 0.0) (>= motzkin_450_8 0.0) (>= motzkin_450_9 0.0) (>= motzkin_450_10 0.0) (>= motzkin_450_11 0.0) (>= motzkin_450_12 0.0) (= (+ (* motzkin_450_0 (- 1.0)) motzkin_450_3 (* motzkin_450_9 (+ (* (- 1.0) lp_0_0_ULTIMATE.start_main_~x~5) 0.0)) (* motzkin_450_10 (+ (* (- 1.0) lp_0_3_ULTIMATE.start_main_~x~5) 0.0))) 0.0) (= (+ motzkin_450_0 (* motzkin_450_3 (- 1.0)) motzkin_450_5 (* motzkin_450_6 (- 1.0)) (* motzkin_450_7 (- 1.0)) (* motzkin_450_11 (+ (* 1.0 lp_0_2_ULTIMATE.start_main_~x~5) 0.0)) (* motzkin_450_12 (+ (* 1.0 lp_0_3_ULTIMATE.start_main_~x~5) 0.0))) 0.0) (= (+ motzkin_450_1 (* motzkin_450_8 (- 1.0)) (* motzkin_450_9 (+ (* (- 1.0) lp_0_0_ULTIMATE.start_main_~y~5) 0.0)) (* motzkin_450_10 (+ (* (- 1.0) lp_0_3_ULTIMATE.start_main_~y~5) 0.0))) 0.0) (= (+ (* motzkin_450_1 (- 1.0)) motzkin_450_8 (* motzkin_450_11 (+ (* 1.0 lp_0_2_ULTIMATE.start_main_~y~5) 0.0)) (* motzkin_450_12 (+ (* 1.0 lp_0_3_ULTIMATE.start_main_~y~5) 0.0))) 0.0) (= (+ (* motzkin_450_2 (- 1.0)) motzkin_450_4 (* motzkin_450_5 (- 1.0)) motzkin_450_6) 0.0) (= (+ (* motzkin_450_5 (- 4294967296.0)) (* motzkin_450_6 4294967296.0)) 0.0) (= (+ (* motzkin_450_9 (+ (* (- 1.0) lp_0_0_ULTIMATE.start_main_~n~5) 0.0)) (* motzkin_450_10 (+ (* (- 1.0) lp_0_3_ULTIMATE.start_main_~n~5) 0.0)) (* motzkin_450_11 (+ (* 1.0 lp_0_2_ULTIMATE.start_main_~n~5) 0.0)) (* motzkin_450_12 (+ (* 1.0 lp_0_3_ULTIMATE.start_main_~n~5) 0.0))) 0.0) (<= (+ (* motzkin_450_0 (- 1.0)) (* motzkin_450_1 (- 1.0)) (* motzkin_450_2 4294967295.0) motzkin_450_3 (* motzkin_450_4 (- 1.0)) (* motzkin_450_7 (- 4294967297.0)) motzkin_450_8 (* motzkin_450_9 (+ (* (- 1.0) lp_0_0c) 0.0)) (* motzkin_450_10 (+ (* (- 1.0) lp_0_3c) 0.0)) (* motzkin_450_11 (+ (* 1.0 lp_0_2c) 0.0)) (* motzkin_450_12 (+ (* 1.0 lp_0_3c) 0.0))) 0.0) (or (< (+ (* motzkin_450_0 (- 1.0)) (* motzkin_450_1 (- 1.0)) (* motzkin_450_2 4294967295.0) motzkin_450_3 (* motzkin_450_4 (- 1.0)) (* motzkin_450_7 (- 4294967297.0)) motzkin_450_8 (* motzkin_450_11 (+ (* 1.0 lp_0_2c) 0.0)) (* motzkin_450_12 (+ (* 1.0 lp_0_3c) 0.0))) 0.0) (> (+ motzkin_450_9 motzkin_450_10) 0.0)) (>= motzkin_451_0 0.0) (>= motzkin_451_1 0.0) (>= motzkin_451_2 0.0) (>= motzkin_451_3 0.0) (>= motzkin_451_4 0.0) (>= motzkin_451_5 0.0) (>= motzkin_451_6 0.0) (>= motzkin_451_7 0.0) (>= motzkin_451_8 0.0) (>= motzkin_451_9 0.0) (>= motzkin_451_10 0.0) (>= motzkin_451_11 0.0) (>= motzkin_451_12 0.0) (= (+ (* motzkin_451_0 (- 1.0)) motzkin_451_3 (* motzkin_451_9 (+ (* (- 1.0) lp_0_1_ULTIMATE.start_main_~x~5) 0.0)) (* motzkin_451_10 (+ (* (- 1.0) lp_0_2_ULTIMATE.start_main_~x~5) 0.0))) 0.0) (= (+ motzkin_451_0 (* motzkin_451_3 (- 1.0)) motzkin_451_5 (* motzkin_451_6 (- 1.0)) (* motzkin_451_7 (- 1.0)) (* motzkin_451_11 (+ (* 1.0 lp_0_0_ULTIMATE.start_main_~x~5) 0.0)) (* motzkin_451_12 (+ (* 1.0 lp_0_1_ULTIMATE.start_main_~x~5) 0.0))) 0.0) (= (+ motzkin_451_1 (* motzkin_451_8 (- 1.0)) (* motzkin_451_9 (+ (* (- 1.0) lp_0_1_ULTIMATE.start_main_~y~5) 0.0)) (* motzkin_451_10 (+ (* (- 1.0) lp_0_2_ULTIMATE.start_main_~y~5) 0.0))) 0.0) (= (+ (* motzkin_451_1 (- 1.0)) motzkin_451_8 (* motzkin_451_11 (+ (* 1.0 lp_0_0_ULTIMATE.start_main_~y~5) 0.0)) (* motzkin_451_12 (+ (* 1.0 lp_0_1_ULTIMATE.start_main_~y~5) 0.0))) 0.0) (= (+ (* motzkin_451_2 (- 1.0)) motzkin_451_4 (* motzkin_451_5 (- 1.0)) motzkin_451_6) 0.0) (= (+ (* motzkin_451_5 (- 4294967296.0)) (* motzkin_451_6 4294967296.0)) 0.0) (= (+ (* motzkin_451_9 (+ (* (- 1.0) lp_0_1_ULTIMATE.start_main_~n~5) 0.0)) (* motzkin_451_10 (+ (* (- 1.0) lp_0_2_ULTIMATE.start_main_~n~5) 0.0)) (* motzkin_451_11 (+ (* 1.0 lp_0_0_ULTIMATE.start_main_~n~5) 0.0)) (* motzkin_451_12 (+ (* 1.0 lp_0_1_ULTIMATE.start_main_~n~5) 0.0))) 0.0) (<= (+ (* motzkin_451_0 (- 1.0)) (* motzkin_451_1 (- 1.0)) (* motzkin_451_2 4294967295.0) motzkin_451_3 (* motzkin_451_4 (- 1.0)) (* motzkin_451_7 (- 4294967297.0)) motzkin_451_8 (* motzkin_451_9 (+ (* (- 1.0) lp_0_1c) 0.0)) (* motzkin_451_10 (+ (* (- 1.0) lp_0_2c) 0.0)) (* motzkin_451_11 (+ (* 1.0 lp_0_0c) 0.0)) (* motzkin_451_12 (+ (* 1.0 lp_0_1c) 0.0))) 0.0) (or (< (+ (* motzkin_451_0 (- 1.0)) (* motzkin_451_1 (- 1.0)) (* motzkin_451_2 4294967295.0) motzkin_451_3 (* motzkin_451_4 (- 1.0)) (* motzkin_451_7 (- 4294967297.0)) motzkin_451_8 (* motzkin_451_11 (+ (* 1.0 lp_0_0c) 0.0)) (* motzkin_451_12 (+ (* 1.0 lp_0_1c) 0.0))) 0.0) (> (+ motzkin_451_9 motzkin_451_10) 0.0)) (>= motzkin_452_0 0.0) (>= motzkin_452_1 0.0) (>= motzkin_452_2 0.0) (>= motzkin_452_3 0.0) (>= motzkin_452_4 0.0) (>= motzkin_452_5 0.0) (>= motzkin_452_6 0.0) (>= motzkin_452_7 0.0) (>= motzkin_452_8 0.0) (>= motzkin_452_9 0.0) (>= motzkin_452_10 0.0) (>= motzkin_452_11 0.0) (>= motzkin_452_12 0.0) (= (+ (* motzkin_452_0 (- 1.0)) motzkin_452_3 (* motzkin_452_9 (+ (* (- 1.0) lp_0_1_ULTIMATE.start_main_~x~5) 0.0)) (* motzkin_452_10 (+ (* (- 1.0) lp_0_2_ULTIMATE.start_main_~x~5) 0.0))) 0.0) (= (+ motzkin_452_0 (* motzkin_452_3 (- 1.0)) motzkin_452_5 (* motzkin_452_6 (- 1.0)) (* motzkin_452_7 (- 1.0)) (* motzkin_452_11 (+ (* 1.0 lp_0_2_ULTIMATE.start_main_~x~5) 0.0)) (* motzkin_452_12 (+ (* 1.0 lp_0_3_ULTIMATE.start_main_~x~5) 0.0))) 0.0) (= (+ motzkin_452_1 (* motzkin_452_8 (- 1.0)) (* motzkin_452_9 (+ (* (- 1.0) lp_0_1_ULTIMATE.start_main_~y~5) 0.0)) (* motzkin_452_10 (+ (* (- 1.0) lp_0_2_ULTIMATE.start_main_~y~5) 0.0))) 0.0) (= (+ (* motzkin_452_1 (- 1.0)) motzkin_452_8 (* motzkin_452_11 (+ (* 1.0 lp_0_2_ULTIMATE.start_main_~y~5) 0.0)) (* motzkin_452_12 (+ (* 1.0 lp_0_3_ULTIMATE.start_main_~y~5) 0.0))) 0.0) (= (+ (* motzkin_452_2 (- 1.0)) motzkin_452_4 (* motzkin_452_5 (- 1.0)) motzkin_452_6) 0.0) (= (+ (* motzkin_452_5 (- 4294967296.0)) (* motzkin_452_6 4294967296.0)) 0.0) (= (+ (* motzkin_452_9 (+ (* (- 1.0) lp_0_1_ULTIMATE.start_main_~n~5) 0.0)) (* motzkin_452_10 (+ (* (- 1.0) lp_0_2_ULTIMATE.start_main_~n~5) 0.0)) (* motzkin_452_11 (+ (* 1.0 lp_0_2_ULTIMATE.start_main_~n~5) 0.0)) (* motzkin_452_12 (+ (* 1.0 lp_0_3_ULTIMATE.start_main_~n~5) 0.0))) 0.0) (<= (+ (* motzkin_452_0 (- 1.0)) (* motzkin_452_1 (- 1.0)) (* motzkin_452_2 4294967295.0) motzkin_452_3 (* motzkin_452_4 (- 1.0)) (* motzkin_452_7 (- 4294967297.0)) motzkin_452_8 (* motzkin_452_9 (+ (* (- 1.0) lp_0_1c) 0.0)) (* motzkin_452_10 (+ (* (- 1.0) lp_0_2c) 0.0)) (* motzkin_452_11 (+ (* 1.0 lp_0_2c) 0.0)) (* motzkin_452_12 (+ (* 1.0 lp_0_3c) 0.0))) 0.0) (or (< (+ (* motzkin_452_0 (- 1.0)) (* motzkin_452_1 (- 1.0)) (* motzkin_452_2 4294967295.0) motzkin_452_3 (* motzkin_452_4 (- 1.0)) (* motzkin_452_7 (- 4294967297.0)) motzkin_452_8 (* motzkin_452_11 (+ (* 1.0 lp_0_2c) 0.0)) (* motzkin_452_12 (+ (* 1.0 lp_0_3c) 0.0))) 0.0) (> (+ motzkin_452_9 motzkin_452_10) 0.0)) (>= motzkin_453_0 0.0) (>= motzkin_453_1 0.0) (>= motzkin_453_2 0.0) (>= motzkin_453_3 0.0) (>= motzkin_453_4 0.0) (>= motzkin_453_5 0.0) (>= motzkin_453_6 0.0) (>= motzkin_453_7 0.0) (>= motzkin_453_8 0.0) (>= motzkin_453_9 0.0) (>= motzkin_453_10 0.0) (>= motzkin_453_11 0.0) (>= motzkin_453_12 0.0) (= (+ (* motzkin_453_0 (- 1.0)) motzkin_453_3 (* motzkin_453_9 (+ (* (- 1.0) lp_0_1_ULTIMATE.start_main_~x~5) 0.0)) (* motzkin_453_10 (+ (* (- 1.0) lp_0_3_ULTIMATE.start_main_~x~5) 0.0))) 0.0) (= (+ motzkin_453_0 (* motzkin_453_3 (- 1.0)) motzkin_453_5 (* motzkin_453_6 (- 1.0)) (* motzkin_453_7 (- 1.0)) (* motzkin_453_11 (+ (* 1.0 lp_0_0_ULTIMATE.start_main_~x~5) 0.0)) (* motzkin_453_12 (+ (* 1.0 lp_0_1_ULTIMATE.start_main_~x~5) 0.0))) 0.0) (= (+ motzkin_453_1 (* motzkin_453_8 (- 1.0)) (* motzkin_453_9 (+ (* (- 1.0) lp_0_1_ULTIMATE.start_main_~y~5) 0.0)) (* motzkin_453_10 (+ (* (- 1.0) lp_0_3_ULTIMATE.start_main_~y~5) 0.0))) 0.0) (= (+ (* motzkin_453_1 (- 1.0)) motzkin_453_8 (* motzkin_453_11 (+ (* 1.0 lp_0_0_ULTIMATE.start_main_~y~5) 0.0)) (* motzkin_453_12 (+ (* 1.0 lp_0_1_ULTIMATE.start_main_~y~5) 0.0))) 0.0) (= (+ (* motzkin_453_2 (- 1.0)) motzkin_453_4 (* motzkin_453_5 (- 1.0)) motzkin_453_6) 0.0) (= (+ (* motzkin_453_5 (- 4294967296.0)) (* motzkin_453_6 4294967296.0)) 0.0) (= (+ (* motzkin_453_9 (+ (* (- 1.0) lp_0_1_ULTIMATE.start_main_~n~5) 0.0)) (* motzkin_453_10 (+ (* (- 1.0) lp_0_3_ULTIMATE.start_main_~n~5) 0.0)) (* motzkin_453_11 (+ (* 1.0 lp_0_0_ULTIMATE.start_main_~n~5) 0.0)) (* motzkin_453_12 (+ (* 1.0 lp_0_1_ULTIMATE.start_main_~n~5) 0.0))) 0.0) (<= (+ (* motzkin_453_0 (- 1.0)) (* motzkin_453_1 (- 1.0)) (* motzkin_453_2 4294967295.0) motzkin_453_3 (* motzkin_453_4 (- 1.0)) (* motzkin_453_7 (- 4294967297.0)) motzkin_453_8 (* motzkin_453_9 (+ (* (- 1.0) lp_0_1c) 0.0)) (* motzkin_453_10 (+ (* (- 1.0) lp_0_3c) 0.0)) (* motzkin_453_11 (+ (* 1.0 lp_0_0c) 0.0)) (* motzkin_453_12 (+ (* 1.0 lp_0_1c) 0.0))) 0.0) (or (< (+ (* motzkin_453_0 (- 1.0)) (* motzkin_453_1 (- 1.0)) (* motzkin_453_2 4294967295.0) motzkin_453_3 (* motzkin_453_4 (- 1.0)) (* motzkin_453_7 (- 4294967297.0)) motzkin_453_8 (* motzkin_453_11 (+ (* 1.0 lp_0_0c) 0.0)) (* motzkin_453_12 (+ (* 1.0 lp_0_1c) 0.0))) 0.0) (> (+ motzkin_453_9 motzkin_453_10) 0.0)) (>= motzkin_454_0 0.0) (>= motzkin_454_1 0.0) (>= motzkin_454_2 0.0) (>= motzkin_454_3 0.0) (>= motzkin_454_4 0.0) (>= motzkin_454_5 0.0) (>= motzkin_454_6 0.0) (>= motzkin_454_7 0.0) (>= motzkin_454_8 0.0) (>= motzkin_454_9 0.0) (>= motzkin_454_10 0.0) (>= motzkin_454_11 0.0) (>= motzkin_454_12 0.0) (= (+ (* motzkin_454_0 (- 1.0)) motzkin_454_3 (* motzkin_454_9 (+ (* (- 1.0) lp_0_1_ULTIMATE.start_main_~x~5) 0.0)) (* motzkin_454_10 (+ (* (- 1.0) lp_0_3_ULTIMATE.start_main_~x~5) 0.0))) 0.0) (= (+ motzkin_454_0 (* motzkin_454_3 (- 1.0)) motzkin_454_5 (* motzkin_454_6 (- 1.0)) (* motzkin_454_7 (- 1.0)) (* motzkin_454_11 (+ (* 1.0 lp_0_2_ULTIMATE.start_main_~x~5) 0.0)) (* motzkin_454_12 (+ (* 1.0 lp_0_3_ULTIMATE.start_main_~x~5) 0.0))) 0.0) (= (+ motzkin_454_1 (* motzkin_454_8 (- 1.0)) (* motzkin_454_9 (+ (* (- 1.0) lp_0_1_ULTIMATE.start_main_~y~5) 0.0)) (* motzkin_454_10 (+ (* (- 1.0) lp_0_3_ULTIMATE.start_main_~y~5) 0.0))) 0.0) (= (+ (* motzkin_454_1 (- 1.0)) motzkin_454_8 (* motzkin_454_11 (+ (* 1.0 lp_0_2_ULTIMATE.start_main_~y~5) 0.0)) (* motzkin_454_12 (+ (* 1.0 lp_0_3_ULTIMATE.start_main_~y~5) 0.0))) 0.0) (= (+ (* motzkin_454_2 (- 1.0)) motzkin_454_4 (* motzkin_454_5 (- 1.0)) motzkin_454_6) 0.0) (= (+ (* motzkin_454_5 (- 4294967296.0)) (* motzkin_454_6 4294967296.0)) 0.0) (= (+ (* motzkin_454_9 (+ (* (- 1.0) lp_0_1_ULTIMATE.start_main_~n~5) 0.0)) (* motzkin_454_10 (+ (* (- 1.0) lp_0_3_ULTIMATE.start_main_~n~5) 0.0)) (* motzkin_454_11 (+ (* 1.0 lp_0_2_ULTIMATE.start_main_~n~5) 0.0)) (* motzkin_454_12 (+ (* 1.0 lp_0_3_ULTIMATE.start_main_~n~5) 0.0))) 0.0) (<= (+ (* motzkin_454_0 (- 1.0)) (* motzkin_454_1 (- 1.0)) (* motzkin_454_2 4294967295.0) motzkin_454_3 (* motzkin_454_4 (- 1.0)) (* motzkin_454_7 (- 4294967297.0)) motzkin_454_8 (* motzkin_454_9 (+ (* (- 1.0) lp_0_1c) 0.0)) (* motzkin_454_10 (+ (* (- 1.0) lp_0_3c) 0.0)) (* motzkin_454_11 (+ (* 1.0 lp_0_2c) 0.0)) (* motzkin_454_12 (+ (* 1.0 lp_0_3c) 0.0))) 0.0) (or (< (+ (* motzkin_454_0 (- 1.0)) (* motzkin_454_1 (- 1.0)) (* motzkin_454_2 4294967295.0) motzkin_454_3 (* motzkin_454_4 (- 1.0)) (* motzkin_454_7 (- 4294967297.0)) motzkin_454_8 (* motzkin_454_11 (+ (* 1.0 lp_0_2c) 0.0)) (* motzkin_454_12 (+ (* 1.0 lp_0_3c) 0.0))) 0.0) (> (+ motzkin_454_9 motzkin_454_10) 0.0))))
(declare-fun motzkin_455_0 () Real)
(declare-fun motzkin_455_1 () Real)
(declare-fun motzkin_455_2 () Real)
(declare-fun motzkin_455_3 () Real)
(declare-fun motzkin_455_4 () Real)
(declare-fun motzkin_455_5 () Real)
(declare-fun motzkin_455_6 () Real)
(declare-fun motzkin_455_7 () Real)
(declare-fun motzkin_455_8 () Real)
(declare-fun motzkin_455_9 () Real)
(declare-fun motzkin_455_10 () Real)
(declare-fun motzkin_455_11 () Real)
(declare-fun motzkin_455_12 () Real)
(declare-fun motzkin_455_13 () Real)
(declare-fun motzkin_455_14 () Real)
(declare-fun motzkin_455_15 () Real)
(declare-fun motzkin_455_16 () Real)
(declare-fun motzkin_456_0 () Real)
(declare-fun motzkin_456_1 () Real)
(declare-fun motzkin_456_2 () Real)
(declare-fun motzkin_456_3 () Real)
(declare-fun motzkin_456_4 () Real)
(declare-fun motzkin_456_5 () Real)
(declare-fun motzkin_456_6 () Real)
(declare-fun motzkin_456_7 () Real)
(declare-fun motzkin_456_8 () Real)
(declare-fun motzkin_456_9 () Real)
(declare-fun motzkin_456_10 () Real)
(declare-fun motzkin_456_11 () Real)
(declare-fun motzkin_456_12 () Real)
(declare-fun motzkin_456_13 () Real)
(declare-fun motzkin_456_14 () Real)
(declare-fun motzkin_456_15 () Real)
(declare-fun motzkin_456_16 () Real)
(declare-fun motzkin_457_0 () Real)
(declare-fun motzkin_457_1 () Real)
(declare-fun motzkin_457_2 () Real)
(declare-fun motzkin_457_3 () Real)
(declare-fun motzkin_457_4 () Real)
(declare-fun motzkin_457_5 () Real)
(declare-fun motzkin_457_6 () Real)
(declare-fun motzkin_457_7 () Real)
(declare-fun motzkin_457_8 () Real)
(declare-fun motzkin_457_9 () Real)
(declare-fun motzkin_457_10 () Real)
(declare-fun motzkin_457_11 () Real)
(declare-fun motzkin_457_12 () Real)
(declare-fun motzkin_457_13 () Real)
(declare-fun motzkin_457_14 () Real)
(declare-fun motzkin_457_15 () Real)
(declare-fun motzkin_457_16 () Real)
(declare-fun motzkin_458_0 () Real)
(declare-fun motzkin_458_1 () Real)
(declare-fun motzkin_458_2 () Real)
(declare-fun motzkin_458_3 () Real)
(declare-fun motzkin_458_4 () Real)
(declare-fun motzkin_458_5 () Real)
(declare-fun motzkin_458_6 () Real)
(declare-fun motzkin_458_7 () Real)
(declare-fun motzkin_458_8 () Real)
(declare-fun motzkin_458_9 () Real)
(declare-fun motzkin_458_10 () Real)
(declare-fun motzkin_458_11 () Real)
(declare-fun motzkin_458_12 () Real)
(declare-fun motzkin_458_13 () Real)
(declare-fun motzkin_458_14 () Real)
(declare-fun motzkin_458_15 () Real)
(declare-fun motzkin_458_16 () Real)
(assert (and (>= motzkin_455_0 0.0) (>= motzkin_455_1 0.0) (>= motzkin_455_2 0.0) (>= motzkin_455_3 0.0) (>= motzkin_455_4 0.0) (>= motzkin_455_5 0.0) (>= motzkin_455_6 0.0) (>= motzkin_455_7 0.0) (>= motzkin_455_8 0.0) (>= motzkin_455_9 0.0) (>= motzkin_455_10 0.0) (>= motzkin_455_11 0.0) (>= motzkin_455_12 0.0) (>= motzkin_455_13 0.0) (>= motzkin_455_14 0.0) (>= motzkin_455_15 0.0) (>= motzkin_455_16 0.0) (= (+ motzkin_455_0 (* motzkin_455_14 (- 1.0)) (* motzkin_455_15 (+ (* 1.0 lp_0_0_ULTIMATE.start_main_~y~5) 0.0)) (* motzkin_455_16 (+ (* 1.0 lp_0_1_ULTIMATE.start_main_~y~5) 0.0))) 0.0) (= (+ (* motzkin_455_1 (- 1.0)) motzkin_455_3 (* motzkin_455_4 (- 1.0)) motzkin_455_7) 0.0) (= (+ motzkin_455_1 (* motzkin_455_7 (- 1.0))) 0.0) (= (+ (* motzkin_455_2 (- 1.0)) (* motzkin_455_8 (- 1.0)) motzkin_455_9 motzkin_455_10) 0.0) (= (+ motzkin_455_5 (* motzkin_455_6 (- 1.0)) (* motzkin_455_12 (- 1.0)) (* motzkin_455_15 (+ (* 1.0 lp_0_0_ULTIMATE.start_main_~n~5) 0.0)) (* motzkin_455_16 (+ (* 1.0 lp_0_1_ULTIMATE.start_main_~n~5) 0.0))) 0.0) (= (+ (* motzkin_455_5 (- 4294967296.0)) (* motzkin_455_6 4294967296.0)) 0.0) (= (+ (* motzkin_455_5 (- 1.0)) motzkin_455_6 (* motzkin_455_13 (- 1.0)) motzkin_455_14) 0.0) (= (+ motzkin_455_8 (* motzkin_455_9 (- 1.0)) (* motzkin_455_11 (- 1.0)) (* motzkin_455_15 (+ (* 1.0 lp_0_0_ULTIMATE.start_main_~x~5) 0.0)) (* motzkin_455_16 (+ (* 1.0 lp_0_1_ULTIMATE.start_main_~x~5) 0.0))) 0.0) (= (+ (* motzkin_455_8 (- 4294967296.0)) (* motzkin_455_9 4294967296.0)) 0.0) (<= (+ (* motzkin_455_11 (- 4294967297.0)) (* motzkin_455_12 (- 4294967297.0)) (* motzkin_455_13 4294967295.0) (* motzkin_455_14 (- 1.0)) (* motzkin_455_15 (+ (* 1.0 lp_0_0c) 0.0)) (* motzkin_455_16 (+ (* 1.0 lp_0_1c) 0.0))) 0.0) (or (< (+ (* motzkin_455_11 (- 4294967297.0)) (* motzkin_455_12 (- 4294967297.0)) (* motzkin_455_13 4294967295.0) (* motzkin_455_14 (- 1.0)) (* motzkin_455_15 (+ (* 1.0 lp_0_0c) 0.0)) (* motzkin_455_16 (+ (* 1.0 lp_0_1c) 0.0))) 0.0) (> 0.0 0.0)) (>= motzkin_456_0 0.0) (>= motzkin_456_1 0.0) (>= motzkin_456_2 0.0) (>= motzkin_456_3 0.0) (>= motzkin_456_4 0.0) (>= motzkin_456_5 0.0) (>= motzkin_456_6 0.0) (>= motzkin_456_7 0.0) (>= motzkin_456_8 0.0) (>= motzkin_456_9 0.0) (>= motzkin_456_10 0.0) (>= motzkin_456_11 0.0) (>= motzkin_456_12 0.0) (>= motzkin_456_13 0.0) (>= motzkin_456_14 0.0) (>= motzkin_456_15 0.0) (>= motzkin_456_16 0.0) (= (+ motzkin_456_0 (* motzkin_456_14 (- 1.0)) (* motzkin_456_15 (+ (* 1.0 lp_0_2_ULTIMATE.start_main_~y~5) 0.0)) (* motzkin_456_16 (+ (* 1.0 lp_0_3_ULTIMATE.start_main_~y~5) 0.0))) 0.0) (= (+ (* motzkin_456_1 (- 1.0)) motzkin_456_3 (* motzkin_456_4 (- 1.0)) motzkin_456_7) 0.0) (= (+ motzkin_456_1 (* motzkin_456_7 (- 1.0))) 0.0) (= (+ (* motzkin_456_2 (- 1.0)) (* motzkin_456_8 (- 1.0)) motzkin_456_9 motzkin_456_10) 0.0) (= (+ motzkin_456_5 (* motzkin_456_6 (- 1.0)) (* motzkin_456_12 (- 1.0)) (* motzkin_456_15 (+ (* 1.0 lp_0_2_ULTIMATE.start_main_~n~5) 0.0)) (* motzkin_456_16 (+ (* 1.0 lp_0_3_ULTIMATE.start_main_~n~5) 0.0))) 0.0) (= (+ (* motzkin_456_5 (- 4294967296.0)) (* motzkin_456_6 4294967296.0)) 0.0) (= (+ (* motzkin_456_5 (- 1.0)) motzkin_456_6 (* motzkin_456_13 (- 1.0)) motzkin_456_14) 0.0) (= (+ motzkin_456_8 (* motzkin_456_9 (- 1.0)) (* motzkin_456_11 (- 1.0)) (* motzkin_456_15 (+ (* 1.0 lp_0_2_ULTIMATE.start_main_~x~5) 0.0)) (* motzkin_456_16 (+ (* 1.0 lp_0_3_ULTIMATE.start_main_~x~5) 0.0))) 0.0) (= (+ (* motzkin_456_8 (- 4294967296.0)) (* motzkin_456_9 4294967296.0)) 0.0) (<= (+ (* motzkin_456_11 (- 4294967297.0)) (* motzkin_456_12 (- 4294967297.0)) (* motzkin_456_13 4294967295.0) (* motzkin_456_14 (- 1.0)) (* motzkin_456_15 (+ (* 1.0 lp_0_2c) 0.0)) (* motzkin_456_16 (+ (* 1.0 lp_0_3c) 0.0))) 0.0) (or (< (+ (* motzkin_456_11 (- 4294967297.0)) (* motzkin_456_12 (- 4294967297.0)) (* motzkin_456_13 4294967295.0) (* motzkin_456_14 (- 1.0)) (* motzkin_456_15 (+ (* 1.0 lp_0_2c) 0.0)) (* motzkin_456_16 (+ (* 1.0 lp_0_3c) 0.0))) 0.0) (> 0.0 0.0)) (>= motzkin_457_0 0.0) (>= motzkin_457_1 0.0) (>= motzkin_457_2 0.0) (>= motzkin_457_3 0.0) (>= motzkin_457_4 0.0) (>= motzkin_457_5 0.0) (>= motzkin_457_6 0.0) (>= motzkin_457_7 0.0) (>= motzkin_457_8 0.0) (>= motzkin_457_9 0.0) (>= motzkin_457_10 0.0) (>= motzkin_457_11 0.0) (>= motzkin_457_12 0.0) (>= motzkin_457_13 0.0) (>= motzkin_457_14 0.0) (>= motzkin_457_15 0.0) (>= motzkin_457_16 0.0) (= (+ (* motzkin_457_0 (- 1.0)) motzkin_457_2 (* motzkin_457_3 (- 1.0)) motzkin_457_7) 0.0) (= (+ motzkin_457_0 (* motzkin_457_7 (- 1.0))) 0.0) (= (+ (* motzkin_457_1 (- 1.0)) (* motzkin_457_8 (- 1.0)) motzkin_457_9 motzkin_457_11) 0.0) (= (+ (* motzkin_457_4 (- 1.0)) motzkin_457_14 (* motzkin_457_15 (+ (* 1.0 lp_0_0_ULTIMATE.start_main_~y~5) 0.0)) (* motzkin_457_16 (+ (* 1.0 lp_0_1_ULTIMATE.start_main_~y~5) 0.0))) 0.0) (= (+ motzkin_457_5 (* motzkin_457_6 (- 1.0)) (* motzkin_457_13 (- 1.0)) (* motzkin_457_15 (+ (* 1.0 lp_0_0_ULTIMATE.start_main_~n~5) 0.0)) (* motzkin_457_16 (+ (* 1.0 lp_0_1_ULTIMATE.start_main_~n~5) 0.0))) 0.0) (= (+ (* motzkin_457_5 (- 4294967296.0)) (* motzkin_457_6 4294967296.0)) 0.0) (= (+ (* motzkin_457_5 (- 1.0)) motzkin_457_6 motzkin_457_10 (* motzkin_457_14 (- 1.0))) 0.0) (= (+ motzkin_457_8 (* motzkin_457_9 (- 1.0)) (* motzkin_457_12 (- 1.0)) (* motzkin_457_15 (+ (* 1.0 lp_0_0_ULTIMATE.start_main_~x~5) 0.0)) (* motzkin_457_16 (+ (* 1.0 lp_0_1_ULTIMATE.start_main_~x~5) 0.0))) 0.0) (= (+ (* motzkin_457_8 (- 4294967296.0)) (* motzkin_457_9 4294967296.0)) 0.0) (<= (+ (* motzkin_457_4 4294967295.0) (* motzkin_457_12 (- 4294967297.0)) (* motzkin_457_13 (- 4294967297.0)) (* motzkin_457_14 (- 1.0)) (* motzkin_457_15 (+ (* 1.0 lp_0_0c) 0.0)) (* motzkin_457_16 (+ (* 1.0 lp_0_1c) 0.0))) 0.0) (or (< (+ (* motzkin_457_4 4294967295.0) (* motzkin_457_12 (- 4294967297.0)) (* motzkin_457_13 (- 4294967297.0)) (* motzkin_457_14 (- 1.0)) (* motzkin_457_15 (+ (* 1.0 lp_0_0c) 0.0)) (* motzkin_457_16 (+ (* 1.0 lp_0_1c) 0.0))) 0.0) (> 0.0 0.0)) (>= motzkin_458_0 0.0) (>= motzkin_458_1 0.0) (>= motzkin_458_2 0.0) (>= motzkin_458_3 0.0) (>= motzkin_458_4 0.0) (>= motzkin_458_5 0.0) (>= motzkin_458_6 0.0) (>= motzkin_458_7 0.0) (>= motzkin_458_8 0.0) (>= motzkin_458_9 0.0) (>= motzkin_458_10 0.0) (>= motzkin_458_11 0.0) (>= motzkin_458_12 0.0) (>= motzkin_458_13 0.0) (>= motzkin_458_14 0.0) (>= motzkin_458_15 0.0) (>= motzkin_458_16 0.0) (= (+ (* motzkin_458_0 (- 1.0)) motzkin_458_2 (* motzkin_458_3 (- 1.0)) motzkin_458_7) 0.0) (= (+ motzkin_458_0 (* motzkin_458_7 (- 1.0))) 0.0) (= (+ (* motzkin_458_1 (- 1.0)) (* motzkin_458_8 (- 1.0)) motzkin_458_9 motzkin_458_11) 0.0) (= (+ (* motzkin_458_4 (- 1.0)) motzkin_458_14 (* motzkin_458_15 (+ (* 1.0 lp_0_2_ULTIMATE.start_main_~y~5) 0.0)) (* motzkin_458_16 (+ (* 1.0 lp_0_3_ULTIMATE.start_main_~y~5) 0.0))) 0.0) (= (+ motzkin_458_5 (* motzkin_458_6 (- 1.0)) (* motzkin_458_13 (- 1.0)) (* motzkin_458_15 (+ (* 1.0 lp_0_2_ULTIMATE.start_main_~n~5) 0.0)) (* motzkin_458_16 (+ (* 1.0 lp_0_3_ULTIMATE.start_main_~n~5) 0.0))) 0.0) (= (+ (* motzkin_458_5 (- 4294967296.0)) (* motzkin_458_6 4294967296.0)) 0.0) (= (+ (* motzkin_458_5 (- 1.0)) motzkin_458_6 motzkin_458_10 (* motzkin_458_14 (- 1.0))) 0.0) (= (+ motzkin_458_8 (* motzkin_458_9 (- 1.0)) (* motzkin_458_12 (- 1.0)) (* motzkin_458_15 (+ (* 1.0 lp_0_2_ULTIMATE.start_main_~x~5) 0.0)) (* motzkin_458_16 (+ (* 1.0 lp_0_3_ULTIMATE.start_main_~x~5) 0.0))) 0.0) (= (+ (* motzkin_458_8 (- 4294967296.0)) (* motzkin_458_9 4294967296.0)) 0.0) (<= (+ (* motzkin_458_4 4294967295.0) (* motzkin_458_12 (- 4294967297.0)) (* motzkin_458_13 (- 4294967297.0)) (* motzkin_458_14 (- 1.0)) (* motzkin_458_15 (+ (* 1.0 lp_0_2c) 0.0)) (* motzkin_458_16 (+ (* 1.0 lp_0_3c) 0.0))) 0.0) (or (< (+ (* motzkin_458_4 4294967295.0) (* motzkin_458_12 (- 4294967297.0)) (* motzkin_458_13 (- 4294967297.0)) (* motzkin_458_14 (- 1.0)) (* motzkin_458_15 (+ (* 1.0 lp_0_2c) 0.0)) (* motzkin_458_16 (+ (* 1.0 lp_0_3c) 0.0))) 0.0) (> 0.0 0.0))))
(check-sat)
(exit)
